nrDays = 7;
nrWeeks = 5;
slotsPerDay = 288;

nrClasses = 2;

% array giving the number of possible time options for each class
classes_options = [3,2];

% possible weeks
classes_weeks = 
   [|false,	false,	false,	true,	true,	%class1
	|false,	true,	true,	false,	false,	%class1
	|true,	true,	true,	false,	false,	%class1
	|false,	true,	true,	false,	false,	%class2
	|false,	false,	true,	false,	true,	%class2
	|];

% second column is the starting point
% third column is the duration
% next columns are the possible days
classes_days = 
   [|true,	true,	true,	true,	true,	true,	true,	%class1
	|true,	true,	true,	true,	true,	true,	true,	%class1
	|true,	true,	true,	true,	true,	true,	true,	%class1
	|true,	true,	true,	true,	true,	true,	true,	%class2
	|true,	true,	true,	true,	true,	true,	true,	%class2
	|];

classes_days_sd = 
   [|90,	20
	|90,	20
	|90,	20
	|90,	20
	|90,	20
	|];